Reading model...
...model read.
creating competitive generators file...
...competitive generators recorded.
Loading data...
.. real-time data read.
Compiling instance...
...instance created.
Creating Offer Mitigation (model will solve as dispatch if TRUE)...
NOTE: storage offers will not be mitigated
...storage offer mitigation file created
Converting model to MPEC...
...converted
NOTE: initial MIP solve with only storage competitive to get feasible solution
Solving...

Welcome to IBM(R) ILOG(R) CPLEX(R) Interactive Optimizer 12.9.0.0
  with Simplex, Mixed Integer & Barrier Optimizers
5725-A06 5725-A29 5724-Y48 5724-Y49 5724-Y54 5724-Y55 5655-Y21
Copyright IBM Corp. 1988, 2019.  All Rights Reserved.

Type 'help' for a list of available commands.
Type 'help' followed by a command name for more
information on commands.

CPLEX> Logfile 'cplex.log' closed.
Logfile 'C:\Users\llavin\Desktop\test826\logs\tmpcjcik2az.cplex.log' open.
CPLEX> New value for parallel optimization mode: -1
CPLEX> New value for emphasis for MIP optimization: 1
CPLEX> New value for mixed integer optimality gap tolerance: 0.01
CPLEX> New value for integrality tolerance: 1e-12
CPLEX> New value for deterministic time limit in ticks: 65000
CPLEX> Problem 'C:\Users\llavin\Desktop\test826\logs\tmp7nlh66li.pyomo.lp' read.
Read time = 0.48 sec. (28.91 ticks)
CPLEX> Problem name         : C:\Users\llavin\Desktop\test826\logs\tmp7nlh66li.pyomo.lp
Objective sense      : Maximize
Variables            :  107803  [Nneg: 1,  Box: 44062,  Free: 8928,
                                 Binary: 54812]
Objective nonzeros   :   17280
Linear constraints   :  246963  [Less: 82886,  Greater: 118460,  Equal: 45617]
  Nonzeros           :  620741
  RHS nonzeros       :  134923

Variables            : Min LB: -5000.000        Max UB: 1000000.       
Objective nonzeros   : Min   : 0.1944444        Max   : 180.0000       
Linear constraints   :
  Nonzeros           : Min   : 0.1944444        Max   : 1000000.       
  RHS nonzeros       : Min   : 0.1944444        Max   : 1000000.       
CPLEX> CPXPARAM_Parallel                                -1
CPXPARAM_Emphasis_MIP                            1
CPXPARAM_DetTimeLimit                            65000
CPXPARAM_MIP_Tolerances_MIPGap                   0.01
CPXPARAM_MIP_Tolerances_Integrality              9.9999999999999998e-13
Tried aggregator 3 times.
MIP Presolve eliminated 181272 rows and 41234 columns.
MIP Presolve added 6096 rows and 0 columns.
MIP Presolve modified 49522 coefficients.
Aggregator did 25946 substitutions.
Reduced MIP has 45841 rows, 38991 columns, and 156337 nonzeros.
Reduced MIP has 15345 binaries, 0 generals, 0 SOSs, and 0 indicators.
Presolve time = 0.59 sec. (388.86 ticks)
Probing fixed 864 vars, tightened 9666 bounds.
Probing time = 0.39 sec. (15.06 ticks)
Tried aggregator 2 times.
MIP Presolve eliminated 1964 rows and 1772 columns.
MIP Presolve modified 5376 coefficients.
Aggregator did 48 substitutions.
Reduced MIP has 43829 rows, 37171 columns, and 150352 nonzeros.
Reduced MIP has 14459 binaries, 0 generals, 0 SOSs, and 0 indicators.
Presolve time = 0.20 sec. (220.31 ticks)
Probing fixed 0 vars, tightened 545 bounds.
Probing time = 0.51 sec. (16.00 ticks)
Clique table members: 86894.
MIP emphasis: integer feasibility.
MIP search method: dynamic search.
Parallel mode: opportunistic, using up to 32 threads.
Root relaxation solution time = 0.86 sec. (1742.83 ticks)

        Nodes                                         Cuts/
   Node  Left     Objective  IInf  Best Integer    Best Bound    ItCnt     Gap

      0     0     2842.2968   317                   2842.2968     9292         
      0     0     2842.2968    45                Flowcuts: 38     9349         
      0     0     2842.2968    52                   Cuts: 170     9449         
      0     0     2842.2968    35                Flowcuts: 80     9479         
      0    32     2808.1550    25                     Cuts: 6     9694         
Elapsed time = 8.06 sec. (4500.32 ticks, tree = 0.06 MB, solutions = 0)
    336    77     2777.3680    23                   2842.2968    10114         
    680   517     2523.3038     5                   2842.2968    12026         
    899   732     2725.4882    13                   2842.2968    13207         
*  1039+  844                         2588.6391     2842.2968             9.80%
   1478   858     2703.3426     6     2606.1489     2842.2968    16180    9.06%
   2128  1305     2756.1689     8     2606.1489     2842.2968    17605    9.06%
*  2193  1140      integral     0     2712.8180     2842.2968    17252    4.77%
*  2694  1549      integral     0     2712.8180     2842.2968    18233    4.77%
   2786  1034     2733.9243    10     2712.8180     2842.2968    19841    4.77%
*  3042  1057      integral     0     2713.1182     2841.9966    20991    4.75%
*  3059  1047      integral     0     2713.1182     2841.9966    20745    4.75%
   3332  1041     2770.5073    13     2730.8039     2841.9966    22140    4.07%
   3871  1121     2759.5296    17     2730.8039     2841.9966    22890    4.07%
   5674  2363     2732.8467     3     2732.5464     2841.9966    28702    4.01%
Elapsed time = 24.75 sec. (7478.23 ticks, tree = 32.41 MB, solutions = 18)
*  5719+ 2363                         2732.8467     2841.9966             3.99%
   5728  2943        cutoff           2732.8467     2816.8193    38795    3.07%

Cover cuts applied:  1
Implied bound cuts applied:  3
Flow cuts applied:  8
Mixed integer rounding cuts applied:  10
Gomory fractional cuts applied:  25

Root node processing (before b&c):
  Real time             =    5.48 sec. (4468.61 ticks)
Parallel b&c, 32 threads:
  Real time             =   27.00 sec. (6522.68 ticks)
  Sync time (average)   =    6.08 sec.
  Wait time (average)   =    0.25 sec.
                          ------------
Total (root+branch&cut) =   32.48 sec. (10991.29 ticks)

Solution pool: 18 solutions saved.

MIP - Integer optimal, tolerance (0.01/1e-06):  Objective =  2.7328466535e+03
Current MIP best bound =  2.7593486610e+03 (gap = 26.502, 0.97%)
Solution time =   32.53 sec.  Iterations = 40064  Nodes = 6014 (91)
Deterministic time = 10991.59 ticks  (337.88 ticks/sec)

CPLEX> Incumbent solution written to file 'C:\Users\llavin\Desktop\test826\logs\tmp5xivfhr1.cplex.sol'.
CPLEX> NOTE: no warmstart specified for MIP iteration, default behavior is true
NOTE: resolving with all competitive generators using storage-only solution to warmstart
Solving...

Welcome to IBM(R) ILOG(R) CPLEX(R) Interactive Optimizer 12.9.0.0
  with Simplex, Mixed Integer & Barrier Optimizers
5725-A06 5725-A29 5724-Y48 5724-Y49 5724-Y54 5724-Y55 5655-Y21
Copyright IBM Corp. 1988, 2019.  All Rights Reserved.

Type 'help' for a list of available commands.
Type 'help' followed by a command name for more
information on commands.

CPLEX> Logfile 'cplex.log' closed.
Logfile 'C:\Users\llavin\Desktop\test826\logs\tmpc7phhcqp.cplex.log' open.
CPLEX> New value for parallel optimization mode: -1
CPLEX> New value for emphasis for MIP optimization: 1
CPLEX> New value for mixed integer optimality gap tolerance: 0.01
CPLEX> New value for integrality tolerance: 1e-12
CPLEX> New value for deterministic time limit in ticks: 65000
CPLEX> Problem 'C:\Users\llavin\Desktop\test826\logs\tmpb8lz00a0.pyomo.lp' read.
Read time = 0.47 sec. (28.95 ticks)
CPLEX> MIP start file 'C:\Users\llavin\Desktop\test826\logs\tmpmxejr0cv.cplex.mst' read.
CPLEX> Problem name         : C:\Users\llavin\Desktop\test826\logs\tmpb8lz00a0.pyomo.lp
Objective sense      : Maximize
Variables            :  109243  [Nneg: 1,  Box: 45502,  Free: 8928,
                                 Binary: 54812]
Objective nonzeros   :   18672
Linear constraints   :  246963  [Less: 82886,  Greater: 118460,  Equal: 45617]
  Nonzeros           :  620741
  RHS nonzeros       :  134923

Variables            : Min LB: -5000.000        Max UB: 1000000.       
Objective nonzeros   : Min   : 0.1944444        Max   : 180.0000       
Linear constraints   :
  Nonzeros           : Min   : 0.1944444        Max   : 1000000.       
  RHS nonzeros       : Min   : 0.1944444        Max   : 1000000.       
CPLEX> CPXPARAM_Parallel                                -1
CPXPARAM_Emphasis_MIP                            1
CPXPARAM_DetTimeLimit                            65000
CPXPARAM_MIP_Tolerances_MIPGap                   0.01
CPXPARAM_MIP_Tolerances_Integrality              9.9999999999999998e-13
Warning:  No solution found from 1 MIP starts.
Retaining values of one MIP start for possible repair.
Tried aggregator 3 times.
MIP Presolve eliminated 181272 rows and 42674 columns.
MIP Presolve added 6096 rows and 0 columns.
MIP Presolve modified 49522 coefficients.
Aggregator did 25946 substitutions.
Reduced MIP has 45841 rows, 38991 columns, and 156337 nonzeros.
Reduced MIP has 15345 binaries, 0 generals, 0 SOSs, and 0 indicators.
Presolve time = 0.56 sec. (389.58 ticks)
Probing fixed 864 vars, tightened 9666 bounds.
Probing time = 0.36 sec. (15.06 ticks)
Tried aggregator 2 times.
MIP Presolve eliminated 1964 rows and 1772 columns.
MIP Presolve modified 5376 coefficients.
Aggregator did 48 substitutions.
Reduced MIP has 43829 rows, 37171 columns, and 150352 nonzeros.
Reduced MIP has 14459 binaries, 0 generals, 0 SOSs, and 0 indicators.
Presolve time = 0.19 sec. (220.31 ticks)
Probing fixed 0 vars, tightened 545 bounds.
Probing time = 0.48 sec. (16.00 ticks)
Clique table members: 86894.
MIP emphasis: integer feasibility.
MIP search method: dynamic search.
Parallel mode: opportunistic, using up to 32 threads.
Root relaxation solution time = 0.97 sec. (1900.62 ticks)

        Nodes                                         Cuts/
   Node  Left     Objective  IInf  Best Integer    Best Bound    ItCnt     Gap

      0     0    25393.0957   626                  25393.0957     9686         
      0     0    23412.9946   335                   Cuts: 298    10303         
      0     0    23368.0458   313                   Cuts: 351    10486         
      0     0    23361.8182   307               Flowcuts: 146    10542         
Repair heuristic found nothing.
      0    25    23021.0005   300                     Cuts: 3    10720         
Elapsed time = 7.30 sec. (4423.47 ticks, tree = 0.02 MB, solutions = 0)
    318    80    22653.2133   257                  23068.2588    11194         
    734   368    21971.7901   253                  23068.2588    12857         
   1191   955    21987.7475   231                  23068.2588    15885         
   1550  1314    19853.0369   216                  23068.2588    18187         
   1961  1314    21194.7573   218                  23068.2588    18128         
   2329  1974    20499.2284   180                  23068.2588    23835         
   2655  1946    20115.9102   166                  23068.2588    23586         
   2999  2547    infeasible                        23068.2588    27596         
   3316  2607    17621.7880   108                  23068.2588    28228         
   4667  3274     8651.4795    76                  23068.2588    43234         
Elapsed time = 26.58 sec. (7531.24 ticks, tree = 37.42 MB, solutions = 0)
   6059  4216    infeasible                        23068.2588    58774         
   7409  5422    10695.2298   136                  23068.2588    80085         
   8712  6363    10583.9864   111                  23068.2588    98913         
  10329  7846    10594.2561   132                  23068.2588   122219         
  11874  8263     9065.4651    42                  23068.2588   127110         
  13401  9475    infeasible                        23068.2588   141506         
* 13479 10964      integral     0     9096.9892    23068.2588   162375  153.58%
  15020 10435     5254.6321    70     9096.9892    23068.2588   154760  153.58%
  16673  8248    13482.1849   161     9096.9892    23068.2588   174274  153.58%
  17466 10651    14627.1596   120     9096.9892    15597.1234   229557   71.45%
  18712   187    12333.2537    59     9096.9892    15560.7719   232249   71.05%
Elapsed time = 92.83 sec. (22248.94 ticks, tree = 3.71 MB, solutions = 1)
  19841  1931    12022.2439   100     9096.9892    15560.7719   254010   71.05%
  21037  1422     9177.6448    26     9096.9892    15560.7719   246787   71.05%
  22707  2824    10035.9264    49     9096.9892    15405.9106   268041   69.35%
  24746  4031    11440.0180    91     9096.9892    15405.9106   284620   69.35%
  26634  5405    11068.7905   129     9266.0253    15405.9106   301161   66.26%
  28414  6320     9692.5059    62     9266.0253    15405.9106   316584   66.26%
  30131  8133    10393.9164    68     9266.0253    15405.9106   345448   66.26%
  31953  8520    10427.6107    79     9266.0253    15405.9106   351801   66.26%
  33860 12112     9548.8222    62     9266.0253    15405.9106   408732   66.26%
  35737 11828    12047.5654    76     9266.0253    15405.9106   404072   66.26%
Elapsed time = 156.55 sec. (31791.29 ticks, tree = 166.14 MB, solutions = 2)
  37645 13225        cutoff           9266.0253    15405.9106   425212   66.26%
  39514 14685        cutoff           9266.0253    15405.9106   452182   66.26%
  41407 15318     9412.2777    41     9266.0253    15405.9106   463609   66.26%
  43173 16850     9871.5832    76     9266.0253    15405.9106   488995   66.26%
  44926 17780    10183.9896    99     9266.0253    15405.9106   507126   66.26%
  46667 19691    11081.6867    88     9266.0253    15405.9106   545157   66.26%
  48520 20287        cutoff           9266.0253    15405.9106   555903   66.26%
  50382 22091        cutoff           9266.0253    15405.9106   589991   66.26%
  52311 23819        cutoff           9266.0253    15405.9106   624613   66.26%
  54160 25036    10563.8728    76     9266.0253    15405.9106   649149   66.26%
Elapsed time = 217.86 sec. (41335.31 ticks, tree = 347.07 MB, solutions = 2)
  56052 27375    10206.3286    89     9266.0253    15405.9106   696554   66.26%
  57874 26957     9950.0243   108     9266.0253    15405.9106   688089   66.26%
  59631 29936    10577.9837   103     9266.0253    15405.9106   749405   66.26%
  61374 31520     9847.4583    81     9266.0253    15405.9106   782252   66.26%
  62962 32553    10206.2725    72     9266.0253    15405.9106   801282   66.26%
  64421 32520     9362.0845    58     9266.0253    15405.9106   801035   66.26%
  65881 35957    10651.4574    68     9266.0253    15405.9106   870140   66.26%
  66997 35049    10177.7061   112     9266.0253    15405.9106   852843   66.26%
  68265 34022     9639.0279    67     9266.0253    15405.9106   833946   66.26%
* 69871+37787                         9284.0112    15405.9106            65.94%
  70001 34400    10980.4085    84     9284.0112    15405.9106   840272   65.94%
Elapsed time = 275.55 sec. (50879.60 ticks, tree = 481.05 MB, solutions = 2)
* 70616+38612                         9284.0112    15405.9106            65.94%
  71686 35328    10041.0453    83     9284.0112    15405.9106   858132   65.94%
  73261 35384     9702.1552    70     9284.0112    15405.9106   858609   65.94%
  74706 36136    10291.7928    94     9284.0112    15405.9106   874472   65.94%
* 75934+37994                         9285.5384    15405.9106            65.91%
  75935 36995        cutoff           9285.5384    15405.9106   893293   65.91%
  77021 40511        cutoff           9285.5384    15405.9106   966438   65.91%
  78007 39599    10296.1312    62     9285.5384    15405.9106   947719   65.91%
  79023 42017     9544.8022    49     9285.5384    15405.9106   993792   65.91%
* 79096+37994                         9318.1347    15405.9106            65.33%
  80026 43662    10377.8744   107     9318.1347    15405.9106  1025290   65.33%
  81016 43884     9315.0451    57     9318.1347    15405.9106  1028586   65.33%
  82016 44508     9629.5911    57     9318.1347    15405.9106  1041241   65.33%
Elapsed time = 348.80 sec. (60421.97 ticks, tree = 637.05 MB, solutions = 8)
  82874 43872     9654.7196    38     9318.1347    15405.9106  1029405   65.33%
  83523 45782     9484.2286    61     9318.1347    15405.9106  1063373   65.33%
  84091 44796     9543.8758    57     9318.1347    15405.9106  1045975   65.33%
  84552 45999    10401.9486    63     9318.1347    15405.9106  1067991   65.33%

Cover cuts applied:  16
Implied bound cuts applied:  24
Flow cuts applied:  406
Mixed integer rounding cuts applied:  34
Lift and project cuts applied:  20
Gomory fractional cuts applied:  5

Root node processing (before b&c):
  Real time             =    5.26 sec. (4411.57 ticks)
Parallel b&c, 32 threads:
  Real time             =  364.67 sec. (60652.90 ticks)
  Sync time (average)   =    2.14 sec.
  Wait time (average)   =    0.36 sec.
                          ------------
Total (root+branch&cut) =  369.94 sec. (65064.47 ticks)

Solution pool: 38 solutions saved.

MIP - Deterministic time limit exceeded, integer feasible:  Objective =  9.3181346885e+03
Current MIP best bound =  1.5405910564e+04 (gap = 6087.78, 65.33%)
Solution time =  370.00 sec.  Iterations = 1112909  Nodes = 84821 (47398)
Deterministic time = 65064.78 ticks  (175.85 ticks/sec)

CPLEX> Incumbent solution written to file 'C:\Users\llavin\Desktop\test826\logs\tmpke_19zfq.cplex.sol'.
CPLEX> Exporting results... 
